Set parameter TokenServer to value "opt-license.discovery.wisc.edu"
Set parameter TimeLimit to value 600
Gurobi Optimizer version 9.5.1 build v9.5.1rc2 (linux64)
Thread count: 40 physical cores, 80 logical processors, using up to 32 threads
Optimize a model with 5041 rows, 4900 columns and 19530 nonzeros
Model fingerprint: 0xe999031a
Variable types: 0 continuous, 4900 integer (4900 binary)
Coefficient statistics:
  Matrix range     [1e+00, 2e+03]
  Objective range  [1e+00, 1e+01]
  Bounds range     [1e+00, 1e+00]
  RHS range        [1e+00, 6e+00]
Presolve removed 70 rows and 0 columns
Presolve time: 0.09s
Presolved: 4971 rows, 4900 columns, 19530 nonzeros
Variable types: 0 continuous, 4900 integer (4900 binary)
Found heuristic solution: objective 237.4116757

Root relaxation: objective 9.205411e+01, 1438 iterations, 0.10 seconds (0.07 work units)

    Nodes    |    Current Node    |     Objective Bounds      |     Work
 Expl Unexpl |  Obj  Depth IntInf | Incumbent    BestBd   Gap | It/Node Time

     0     0   92.05411    0  176  237.41168   92.05411  61.2%     -    0s
H    0     0                     111.7206803   92.05411  17.6%     -    0s
H    0     0                      94.2280150   92.05411  2.31%     -    0s
     0     0   92.21066    0  202   94.22801   92.21066  2.14%     -    0s
     0     0   92.21066    0  176   94.22801   92.21066  2.14%     -    1s
H    0     0                      94.0498694   92.21066  1.96%     -    1s
     0     0   92.23571    0  155   94.04987   92.23571  1.93%     -    1s
     0     0   92.24245    0  155   94.04987   92.24245  1.92%     -    1s
H    0     0                      93.4640829   92.24245  1.31%     -    1s
     0     0   92.37986    0  120   93.46408   92.37986  1.16%     -    1s
     0     0   92.37986    0  155   93.46408   92.37986  1.16%     -    1s
     0     0   92.37986    0  159   93.46408   92.37986  1.16%     -    1s
     0     0   92.37986    0  104   93.46408   92.37986  1.16%     -    1s
     0     0   92.40657    0  190   93.46408   92.40657  1.13%     -    1s
H    0     0                      93.3018053   92.40657  0.96%     -    1s
     0     0   92.41189    0  191   93.30181   92.41189  0.95%     -    1s
H    0     0                      92.5378732   92.41189  0.14%     -    1s

Cutting planes:
  Gomory: 1
  MIR: 10
  StrongCG: 2
  GUB cover: 6
  Zero half: 2

Explored 1 nodes (4711 simplex iterations) in 1.88 seconds (0.62 work units)
Thread count was 32 (of 80 available processors)

Solution count 7: 92.5379 93.3018 93.4641 ... 237.412

Optimal solution found (tolerance 1.00e-04)
Best objective 9.253787324945e+01, best bound 9.253691443605e+01, gap 0.0010%
